5 5
1 20 2 85 0 16 4 12 3 52
3 20 1 58 4 45 2 97 0 2
1 34 4 26 2 33 0 42 3 94
0 65 2 8 4 65 1 10 3 32
0 51 1 57 3 40 4 66 2 31
-1
0 2 4 5
0 2 4 5
0 1 3 4 5
0 3 4 5
0 3 5
-2
105 186 287
87 305 228
45 146 139 269
211 200 258
236 298

390 6
20 15 2 9 13
0 6 21 10 18
1 16 8 12 24
5 22 19 4 14
7 17 11 3 23
